
Gurobi 9.5.0 (linux64) logging started Fri Nov 24 17:11:37 2023

Set parameter LogFile to value "/lustre1/scratch/348/vsc34888/JointResearch/05.Models/06.Benchmarking/E.Representative_days_based_on_Line_Benefits_OptModel/RTS24_mod1_ByStages_nc20/openStarNet_RTS24_mod1_ByStages_nc20.log"
Set parameter Method to value 2
Set parameter MIPFocus to value 1
Set parameter Presolve to value 2
Set parameter RINS to value 100
Set parameter MIPGap to value 0.01
Set parameter Threads to value 36
Set parameter TimeLimit to value 259200
Set parameter IterationLimit to value 760000000
Gurobi Optimizer version 9.5.0 build v9.5.0rc5 (linux64)
Thread count: 36 physical cores, 36 logical processors, using up to 36 threads
Optimize a model with 7458 rows, 5059 columns and 20341 nonzeros
Model fingerprint: 0xc65ff5fc
Variable types: 5038 continuous, 21 integer (21 binary)
Coefficient statistics:
  Matrix range     [1e-03, 2e+03]
  Objective range  [1e+00, 1e+00]
  Bounds range     [6e-05, 2e+00]
  RHS range        [6e-05, 2e+00]
Presolve removed 4443 rows and 2558 columns
Presolve time: 0.03s
Presolved: 3015 rows, 2501 columns, 10891 nonzeros
Variable types: 2480 continuous, 21 integer (21 binary)
Found heuristic solution: objective 63.3542280
Root relaxation presolve removed 5 rows and 5 columns
Root relaxation presolved: 3010 rows, 2496 columns, 10881 nonzeros

Root barrier log...

Ordering time: 0.04s

Barrier statistics:
 AA' NZ     : 8.901e+04
 Factor NZ  : 4.117e+05 (roughly 6 MB of memory)
 Factor Ops : 8.894e+07 (less than 1 second per iteration)
 Threads    : 36

                  Objective                Residual
Iter       Primal          Dual         Primal    Dual     Compl     Time
   0   2.71598135e+06 -4.38172070e+07  2.19e+01 5.17e+02  5.32e+04     0s
   1   8.48130445e+05 -2.42460535e+07  6.84e+00 1.98e-10  1.53e+04     0s
   2   1.00058176e+05 -1.40822232e+07  8.46e-01 1.00e-10  3.16e+03     0s
   3   2.40400832e+04 -2.66229905e+06  1.81e-01 1.74e-10  4.90e+02     0s
   4   7.39334456e+03 -4.05296694e+05  3.60e-03 4.33e-11  5.92e+01     0s
   5   4.81736492e+03 -1.12172297e+05  3.22e-05 3.58e-11  1.66e+01     0s
   6   1.32008806e+03 -1.29667394e+04  7.60e-13 6.74e-12  2.03e+00     0s
   7   4.08652865e+02 -2.42862955e+03  6.05e-13 3.64e-12  4.02e-01     0s
   8   2.15865013e+02 -7.82408174e+02  2.35e-13 1.82e-12  1.41e-01     0s
   9   1.44987073e+02 -2.41525225e+02  1.60e-13 1.82e-12  5.48e-02     0s
  10   8.00461400e+01 -4.75598502e+01  1.46e-13 3.64e-12  1.81e-02     0s
  11   5.17329858e+01  4.43317930e+00  2.19e-13 1.82e-12  6.70e-03     0s
  12   4.18462816e+01  2.70248316e+01  5.57e-13 5.46e-12  2.10e-03     0s
  13   3.74466381e+01  2.90088758e+01  1.43e-12 3.64e-12  1.20e-03     0s
  14   3.53629387e+01  3.08617074e+01  8.71e-13 3.64e-12  6.38e-04     0s
  15   3.39167989e+01  3.18024996e+01  4.83e-12 3.64e-12  3.00e-04     0s
  16   3.34186061e+01  3.22037018e+01  1.19e-11 1.82e-12  1.72e-04     0s
  17   3.29077581e+01  3.23746427e+01  4.14e-11 3.64e-12  7.56e-05     0s
  18   3.25253358e+01  3.24730905e+01  1.62e-10 1.82e-12  7.41e-06     0s
  19   3.24935928e+01  3.24835405e+01  1.18e-10 1.82e-12  1.42e-06     0s
  20   3.24907259e+01  3.24845022e+01  1.13e-10 3.64e-12  8.82e-07     0s
  21   3.24862002e+01  3.24851278e+01  1.05e-10 1.82e-12  1.52e-07     0s
  22   3.24853781e+01  3.24852294e+01  6.02e-10 1.82e-12  2.11e-08     0s
  23   3.24852456e+01  3.24852450e+01  2.34e-10 1.82e-12  9.48e-11     0s
  24   3.24852455e+01  3.24852455e+01  2.67e-11 1.82e-12  1.29e-12     0s

Barrier solved model in 24 iterations and 0.39 seconds (0.15 work units)
Optimal objective 3.24852455e+01


Root relaxation: objective 3.248525e+01, 423 iterations, 0.35 seconds (0.10 work units)

    Nodes    |    Current Node    |     Objective Bounds      |     Work
 Expl Unexpl |  Obj  Depth IntInf | Incumbent    BestBd   Gap | It/Node Time

     0     0   32.48525    0   16   63.35423   32.48525  48.7%     -    0s
H    0     0                      56.1525702   32.66112  41.8%     -    0s
     0     0   32.66112    0    7   56.15257   32.66112  41.8%     -    0s
     0     0   32.68055    0    7   56.15257   32.68055  41.8%     -    0s
     0     0   32.87398    0    8   56.15257   32.87398  41.5%     -    0s
H    0     0                      53.8016397   33.09391  38.5%     -    0s
     0     0   33.09391    0    8   53.80164   33.09391  38.5%     -    0s
     0     0   33.25178    0    7   53.80164   33.25178  38.2%     -    0s
     0     0   33.26976    0    7   53.80164   33.26976  38.2%     -    0s
H    0     0                      51.6236632   33.35708  35.4%     -    0s
     0     0   33.35708    0    8   51.62366   33.35708  35.4%     -    0s
     0     0   33.80641    0    8   51.62366   33.80641  34.5%     -    0s
     0     0   34.44619    0    8   51.62366   34.44619  33.3%     -    0s
H    0     0                      45.1081308   34.44619  23.6%     -    1s
     0     2   34.44619    0    8   45.10813   34.44619  23.6%     -    1s

Cutting planes:
  Gomory: 1
  Implied bound: 2
  MIR: 61

Explored 965 nodes (51511 simplex iterations) in 3.80 seconds (4.50 work units)
Thread count was 36 (of 36 available processors)

Solution count 5: 45.1081 51.6237 53.8016 ... 63.3542

Optimal solution found (tolerance 1.00e-02)
Best objective 4.510813075510e+01, best bound 4.476858003781e+01, gap 0.7527%

Gurobi 9.5.0 (linux64) logging started Fri Nov 24 17:11:42 2023

Set parameter LogFile to value "/lustre1/scratch/348/vsc34888/JointResearch/05.Models/06.Benchmarking/E.Representative_days_based_on_Line_Benefits_OptModel/RTS24_mod1_ByStages_nc20/openStarNet_RTS24_mod1_ByStages_nc20.log"
Set parameter Method to value 2
Set parameter MIPFocus to value 1
Set parameter Presolve to value 2
Set parameter RINS to value 100
Set parameter MIPGap to value 0.01
Set parameter Threads to value 36
Set parameter TimeLimit to value 259200
Set parameter IterationLimit to value 760000000
No parameters matching 'relax_integrality' found
Gurobi Optimizer version 9.5.0 build v9.5.0rc5 (linux64)
Thread count: 36 physical cores, 36 logical processors, using up to 36 threads
Optimize a model with 7458 rows, 5038 columns and 18556 nonzeros
Model fingerprint: 0xe07bb5be
Coefficient statistics:
  Matrix range     [1e-03, 2e+03]
  Objective range  [1e+00, 1e+00]
  Bounds range     [6e-05, 2e+00]
  RHS range        [6e-05, 1e+01]
Presolve removed 6257 rows and 2881 columns
Presolve time: 0.01s
Presolved: 1201 rows, 2199 columns, 5130 nonzeros

Ordering time: 0.00s

Barrier statistics:
 AA' NZ     : 2.652e+03
 Factor NZ  : 9.843e+03 (roughly 1 MB of memory)
 Factor Ops : 1.182e+05 (less than 1 second per iteration)
 Threads    : 1

                  Objective                Residual
Iter       Primal          Dual         Primal    Dual     Compl     Time
   0   8.71804247e+05 -5.02088861e+07  4.28e+00 1.66e+03  7.31e+04     0s
   1   8.26402610e+04 -2.70791454e+07  3.58e-01 7.42e-11  1.08e+04     0s
   2   4.30593618e+04 -6.51226474e+06  1.31e-01 9.09e-11  2.28e+03     0s
   3   2.46204748e+04 -1.67550016e+06  2.06e-02 6.18e-11  4.88e+02     0s
   4   1.63369556e+04 -1.39412926e+05  2.19e-14 7.56e-11  4.15e+01     0s
   5   4.36814015e+03 -3.13800396e+04  3.16e-14 2.64e-11  9.53e+00     0s
   6   8.28949805e+02 -3.32030599e+03  3.02e-14 1.46e-11  1.11e+00     0s
   7   2.77688284e+02 -6.51893994e+02  2.24e-14 2.91e-11  2.48e-01     0s
   8   1.41016138e+02 -2.76773153e+02  6.66e-15 1.46e-11  1.11e-01     0s
   9   6.61057974e+01 -2.41352698e+01  4.66e-15 3.64e-12  2.41e-02     0s
  10   4.94592500e+01  3.14318375e+01  3.61e-14 3.64e-12  4.81e-03     0s
  11   4.59360185e+01  4.27309246e+01  4.75e-14 1.46e-11  8.55e-04     0s
  12   4.55380004e+01  4.41093205e+01  7.54e-14 1.46e-11  3.81e-04     0s
  13   4.52387371e+01  4.48267392e+01  1.01e-13 1.46e-11  1.10e-04     0s
  14   4.51467373e+01  4.50485632e+01  7.37e-14 2.91e-11  2.62e-05     0s
  15   4.51119468e+01  4.51015256e+01  2.76e-13 1.46e-11  2.78e-06     0s
  16   4.51082224e+01  4.51077580e+01  6.26e-12 7.28e-12  1.24e-07     0s
  17   4.51081316e+01  4.51081291e+01  1.37e-12 1.46e-11  6.64e-10     0s
  18   4.51081308e+01  4.51081308e+01  1.36e-12 1.46e-11  8.31e-16     0s

Barrier solved model in 18 iterations and 0.02 seconds (0.02 work units)
Optimal objective 4.51081308e+01

Crossover log...

     266 DPushes remaining with DInf 0.0000000e+00                 0s
       0 DPushes remaining with DInf 0.0000000e+00                 0s

      78 PPushes remaining with PInf 0.0000000e+00                 0s
       0 PPushes remaining with PInf 0.0000000e+00                 0s

  Push phase complete: Pinf 0.0000000e+00, Dinf 4.0654683e-13      0s

Iteration    Objective       Primal Inf.    Dual Inf.      Time
      84    4.5108131e+01   0.000000e+00   0.000000e+00      0s

Use crossover to convert LP symmetric solution to basic solution...
Crossover log...

       0 DPushes remaining with DInf 0.0000000e+00                 0s

      59 PPushes remaining with PInf 0.0000000e+00                 0s
       0 PPushes remaining with PInf 0.0000000e+00                 0s

  Push phase complete: Pinf 0.0000000e+00, Dinf 3.8140838e-13      0s

Iteration    Objective       Primal Inf.    Dual Inf.      Time
     151    4.5108131e+01   0.000000e+00   0.000000e+00      0s

Solved in 151 iterations and 0.03 seconds (0.03 work units)
Optimal objective  4.510813076e+01

Gurobi 9.5.0 (linux64) logging started Fri Dec  8 15:18:43 2023

Set parameter LogFile to value "/lustre1/scratch/348/vsc34888/JointResearch/05.Models/06.Benchmarking/E.Representative_days_based_on_Line_Benefits_OptModel/RTS24_mod1_ByStages_nc20/openStarNet_RTS24_mod1_ByStages_nc20.log"
Set parameter Method to value 2
Set parameter MIPFocus to value 1
Set parameter Presolve to value 2
Set parameter RINS to value 100
Set parameter MIPGap to value 0.01
Set parameter Threads to value 36
Set parameter TimeLimit to value 259200
Set parameter IterationLimit to value 760000000
Gurobi Optimizer version 9.5.0 build v9.5.0rc5 (linux64)
Thread count: 36 physical cores, 36 logical processors, using up to 36 threads
Optimize a model with 7458 rows, 5059 columns and 20341 nonzeros
Model fingerprint: 0x515f8aaf
Variable types: 5038 continuous, 21 integer (21 binary)
Coefficient statistics:
  Matrix range     [7e-03, 2e+03]
  Objective range  [1e+00, 1e+00]
  Bounds range     [5e-05, 2e+00]
  RHS range        [5e-05, 2e+00]
Presolve removed 4446 rows and 2560 columns
Presolve time: 0.03s
Presolved: 3012 rows, 2499 columns, 10887 nonzeros
Variable types: 2478 continuous, 21 integer (21 binary)
Found heuristic solution: objective 42.0639724
Root relaxation presolve removed 2 rows and 2 columns
Root relaxation presolved: 3010 rows, 2497 columns, 10883 nonzeros

Root barrier log...

Ordering time: 0.04s

Barrier statistics:
 AA' NZ     : 8.901e+04
 Factor NZ  : 4.192e+05 (roughly 6 MB of memory)
 Factor Ops : 9.288e+07 (less than 1 second per iteration)
 Threads    : 36

                  Objective                Residual
Iter       Primal          Dual         Primal    Dual     Compl     Time
   0   2.72566016e+06 -4.30979345e+07  2.21e+01 5.76e+02  5.37e+04     0s
   1   8.50024982e+05 -2.42735286e+07  6.89e+00 3.07e-10  1.55e+04     0s
   2   9.02109016e+04 -1.40407844e+07  7.89e-01 1.98e-10  3.09e+03     0s
   3   2.16238407e+04 -2.52491826e+06  1.95e-01 2.61e-10  4.80e+02     0s
   4   5.49524037e+03 -3.47693603e+05  3.00e-03 1.30e-10  5.07e+01     0s
   5   3.82927465e+03 -3.70000051e+04  3.06e-06 1.44e-11  5.79e+00     0s
   6   7.35493566e+02 -2.76853564e+03  4.91e-13 3.64e-12  4.97e-01     0s
   7   3.18777099e+02 -9.19956690e+02  3.17e-13 1.82e-12  1.76e-01     0s
   8   1.27306795e+02 -2.23170870e+02  1.38e-13 1.82e-12  4.97e-02     0s
   9   6.05034814e+01 -4.51198447e+01  1.00e-13 7.28e-12  1.50e-02     0s
  10   4.07665534e+01  1.95706435e+00  1.79e-13 3.64e-12  5.50e-03     0s
  11   3.02198672e+01  1.59646016e+01  1.45e-12 1.82e-12  2.02e-03     0s
  12   2.60653496e+01  2.02600288e+01  1.84e-12 3.64e-12  8.23e-04     0s
  13   2.48743823e+01  2.17427889e+01  1.45e-12 1.82e-12  4.44e-04     0s
  14   2.43537749e+01  2.22658115e+01  3.55e-12 2.73e-12  2.96e-04     0s
  15   2.37054816e+01  2.24510238e+01  1.79e-12 3.64e-12  1.78e-04     0s
  16   2.35056400e+01  2.25086201e+01  2.87e-12 3.64e-12  1.41e-04     0s
  17   2.32345160e+01  2.29803040e+01  5.50e-12 3.64e-12  3.60e-05     0s
  18   2.31303868e+01  2.30314839e+01  1.09e-10 3.64e-12  1.40e-05     0s
  19   2.31047910e+01  2.30988218e+01  4.79e-11 1.82e-12  8.46e-07     0s
  20   2.31035991e+01  2.31025124e+01  3.02e-11 1.82e-12  1.54e-07     0s
  21   2.31033899e+01  2.31032340e+01  4.04e-11 1.82e-12  2.21e-08     0s
  22   2.31033534e+01  2.31033307e+01  4.15e-11 3.64e-12  3.21e-09     0s
  23   2.31033526e+01  2.31033525e+01  3.29e-11 3.64e-12  3.54e-12     0s

Barrier solved model in 23 iterations and 0.41 seconds (0.14 work units)
Optimal objective 2.31033526e+01


Root relaxation: objective 2.310335e+01, 406 iterations, 0.37 seconds (0.10 work units)

    Nodes    |    Current Node    |     Objective Bounds      |     Work
 Expl Unexpl |  Obj  Depth IntInf | Incumbent    BestBd   Gap | It/Node Time

     0     0   23.10335    0   11   42.06397   23.10335  45.1%     -    0s
H    0     0                      37.2732307   23.39661  37.2%     -    0s
     0     0   23.39661    0    7   37.27323   23.39661  37.2%     -    0s
     0     0   23.43439    0    8   37.27323   23.43439  37.1%     -    0s
H    0     0                      35.3460835   23.61534  33.2%     -    0s
     0     0   23.73416    0    6   35.34608   23.73416  32.9%     -    0s
     0     0   23.73416    0    6   35.34608   23.73416  32.9%     -    0s
H    0     0                      33.9251022   23.73416  30.0%     -    0s
H    0     0                      33.5843528   23.90111  28.8%     -    0s
     0     0   23.90111    0    8   33.58435   23.90111  28.8%     -    0s
H    0     0                      31.7944964   24.08265  24.3%     -    0s
     0     0   24.08265    0    7   31.79450   24.08265  24.3%     -    0s
     0     0   25.25221    0    7   31.79450   25.25221  20.6%     -    0s
     0     0   25.26330    0    8   31.79450   25.26330  20.5%     -    0s
     0     0   25.58756    0    8   31.79450   25.58756  19.5%     -    0s
H    0     0                      31.5270244   25.58756  18.8%     -    1s
     0     2   25.58756    0    8   31.52702   25.58756  18.8%     -    1s

Cutting planes:
  Gomory: 1
  Implied bound: 1
  MIR: 29
  Relax-and-lift: 1

Explored 319 nodes (16247 simplex iterations) in 2.62 seconds (2.18 work units)
Thread count was 36 (of 36 available processors)

Solution count 7: 31.527 31.7945 33.5844 ... 42.064

Optimal solution found (tolerance 1.00e-02)
Best objective 3.152702442228e+01, best bound 3.152702442228e+01, gap 0.0000%

Gurobi 9.5.0 (linux64) logging started Fri Dec  8 15:18:46 2023

Set parameter LogFile to value "/lustre1/scratch/348/vsc34888/JointResearch/05.Models/06.Benchmarking/E.Representative_days_based_on_Line_Benefits_OptModel/RTS24_mod1_ByStages_nc20/openStarNet_RTS24_mod1_ByStages_nc20.log"
Set parameter Method to value 2
Set parameter MIPFocus to value 1
Set parameter Presolve to value 2
Set parameter RINS to value 100
Set parameter MIPGap to value 0.01
Set parameter Threads to value 36
Set parameter TimeLimit to value 259200
Set parameter IterationLimit to value 760000000
No parameters matching 'relax_integrality' found
Gurobi Optimizer version 9.5.0 build v9.5.0rc5 (linux64)
Thread count: 36 physical cores, 36 logical processors, using up to 36 threads
Optimize a model with 7458 rows, 5038 columns and 18556 nonzeros
Model fingerprint: 0x82fd3c74
Coefficient statistics:
  Matrix range     [7e-03, 2e+03]
  Objective range  [1e+00, 1e+00]
  Bounds range     [5e-05, 2e+00]
  RHS range        [5e-05, 1e+01]
Presolve removed 6198 rows and 2817 columns
Presolve time: 0.01s
Presolved: 1260 rows, 2263 columns, 5497 nonzeros

Ordering time: 0.00s

Barrier statistics:
 AA' NZ     : 3.339e+03
 Factor NZ  : 1.100e+04 (roughly 1 MB of memory)
 Factor Ops : 1.414e+05 (less than 1 second per iteration)
 Threads    : 1

                  Objective                Residual
Iter       Primal          Dual         Primal    Dual     Compl     Time
   0   5.50512479e+05 -3.75131572e+06  5.16e+00 6.93e+02  5.28e+03     0s
   1   5.64248247e+04 -1.98476862e+06  4.51e-01 5.68e-12  7.77e+02     0s
   2   1.33806897e+04 -3.29647920e+05  1.65e-02 5.06e-12  9.03e+01     0s
   3   3.44952433e+03 -1.96968345e+04  8.60e-05 2.52e-12  5.88e+00     0s
   4   4.33939736e+02 -1.80984242e+03  1.35e-07 1.36e-12  5.70e-01     0s
   5   2.33939527e+02 -4.48352884e+02  1.99e-08 9.09e-13  1.73e-01     0s
   6   9.10090944e+01 -1.03363146e+02  4.51e-09 9.09e-13  4.94e-02     0s
   7   4.29018196e+01  3.75896367e+00  6.25e-10 9.09e-13  9.94e-03     0s
   8   3.32576591e+01  2.67424619e+01  6.47e-11 1.82e-12  1.65e-03     0s
   9   3.19114207e+01  3.06392627e+01  1.23e-11 1.82e-12  3.23e-04     0s
  10   3.16045600e+01  3.14120342e+01  1.94e-12 9.09e-13  4.89e-05     0s
  11   3.15358979e+01  3.15063733e+01  1.24e-12 9.09e-13  7.50e-06     0s
  12   3.15274809e+01  3.15257017e+01  2.62e-12 1.36e-12  4.52e-07     0s
  13   3.15270249e+01  3.15270231e+01  3.61e-13 1.36e-12  4.52e-10     0s
  14   3.15270244e+01  3.15270244e+01  9.10e-13 1.36e-12  4.52e-13     0s
  15   3.15270244e+01  3.15270244e+01  9.09e-13 1.82e-12  4.52e-16     0s

Barrier solved model in 15 iterations and 0.03 seconds (0.02 work units)
Optimal objective 3.15270244e+01

Crossover log...

     277 DPushes remaining with DInf 0.0000000e+00                 0s

      88 PPushes remaining with PInf 0.0000000e+00                 0s
       0 PPushes remaining with PInf 0.0000000e+00                 0s

  Push phase complete: Pinf 0.0000000e+00, Dinf 3.1321583e-13      0s

Iteration    Objective       Primal Inf.    Dual Inf.      Time
      91    3.1527024e+01   0.000000e+00   0.000000e+00      0s

Use crossover to convert LP symmetric solution to basic solution...
Crossover log...

      74 PPushes remaining with PInf 0.0000000e+00                 0s
       0 PPushes remaining with PInf 0.0000000e+00                 0s

  Push phase complete: Pinf 0.0000000e+00, Dinf 2.2329197e-13      0s

Iteration    Objective       Primal Inf.    Dual Inf.      Time
     168    3.1527024e+01   0.000000e+00   0.000000e+00      0s

Solved in 168 iterations and 0.04 seconds (0.03 work units)
Optimal objective  3.152702442e+01
